
===== New CPLEX run =====
Instance: /home/yorig/tuner/mpils-tests/instances/miplib/medium-1/momentum1.mps
Config: /scratch/yorig/mpils-results-grid-ticks-10000/medium-1/16proc/seed-5/6_momentum1_seed-5_20260425_215516/expansion/config_param_CPXPARAM_Preprocessing_BoundStrength_0_iter_3.prm
========================

Selected objective sense:  MINIMIZE
Selected objective  name:  MINIMIZE
Selected RHS        name:  rhs
Selected bound      name:  bnd
Version identifier: 22.1.2.0 | 2024-11-26 | 0edbb82fd
CPXPARAM_Threads                                 8
CPXPARAM_Parallel                                1
CPXPARAM_MIP_Cuts_Cliques                        -1
CPXPARAM_Preprocessing_BoundStrength             0
CPXPARAM_MIP_Cuts_FlowCovers                     2
CPXPARAM_MIP_Cuts_Implied                        1
CPXPARAM_MIP_Limits_GomoryCand                   25
CPXPARAM_MIP_Cuts_Gomory                         1
CPXPARAM_MIP_Cuts_PathCut                        1
CPXPARAM_MIP_Cuts_Disjunctive                    -1
CPXPARAM_Emphasis_MIP                            4
CPXPARAM_MIP_Strategy_HeuristicFreq              100
CPXPARAM_DetTimeLimit                            10000
Tried aggregator 3 times.
MIP Presolve eliminated 29101 rows and 1353 columns.
MIP Presolve modified 14367 coefficients.
Aggregator did 220 substitutions.
Reduced MIP has 13359 rows, 3601 columns, and 51329 nonzeros.
Reduced MIP has 1629 binaries, 0 generals, 0 SOSs, and 0 indicators.
Presolve time = 0.12 sec. (168.42 ticks)
Found incumbent of value 533874.734972 after 0.13 sec. (188.11 ticks)
Probing fixed 397 vars, tightened 1249 bounds.
Probing changed sense of 112 constraints.
Probing time = 0.10 sec. (110.97 ticks)
Tried aggregator 2 times.
MIP Presolve eliminated 4790 rows and 856 columns.
MIP Presolve modified 6046 coefficients.
Aggregator did 13 substitutions.
Reduced MIP has 8556 rows, 2732 columns, and 32194 nonzeros.
Reduced MIP has 1168 binaries, 0 generals, 0 SOSs, and 0 indicators.
Presolve time = 0.04 sec. (44.72 ticks)
Probing fixed 2 vars, tightened 225 bounds.
Probing time = 0.05 sec. (46.17 ticks)
Cover probing fixed 0 vars, tightened 369 bounds.
Tried aggregator 2 times.
Detecting symmetries...
MIP Presolve eliminated 245 rows and 4 columns.
MIP Presolve modified 6707 coefficients.
Aggregator did 5 substitutions.
Reduced MIP has 8306 rows, 2723 columns, and 31704 nonzeros.
Reduced MIP has 1166 binaries, 0 generals, 0 SOSs, and 0 indicators.
Presolve time = 0.02 sec. (26.94 ticks)
Probing fixed 0 vars, tightened 184 bounds.
Probing time = 0.04 sec. (42.90 ticks)
Cover probing fixed 0 vars, tightened 125 bounds.
Clique table members: 20800.
MIP emphasis: hidden feasible solutions.
MIP search method: dynamic search.
Parallel mode: deterministic, using up to 8 threads.
Root relaxation solution time = 0.12 sec. (144.35 ticks)

        Nodes                                         Cuts/
   Node  Left     Objective  IInf  Best Integer    Best Bound    ItCnt     Gap

*     0+    0                       533874.7350    44880.5923            91.59%
*     0+    0                       533835.2814    44880.5923            91.59%
*     0+    0                       327380.6614    44880.5923            86.29%
      0     0    79213.0329   216   327380.6614    79213.0329     1537   75.80%
      0     0    96254.4786   297   327380.6614     Cuts: 160     2012   70.60%
      0     0    96260.9580   274   327380.6614      Cuts: 74     2276   70.60%
      0     0    96261.9933   287   327380.6614      Cuts: 29     2325   70.60%
      0     0    96262.4484   287   327380.6614      Cuts: 20     2361   70.60%
*     0+    0                       320954.5594    96262.4484            70.01%
*     0+    0                       314540.7014    96262.4484            69.40%
Detecting symmetries...
      0     2    96262.4484   287   314540.7014    96262.4484     2361   69.40%
Elapsed time = 3.01 sec. (4832.69 ticks, tree = 0.02 MB, solutions = 5)
     33    28   102695.0141   218   314540.7014    96283.8612     5544   69.39%
     89    49   102696.2611   229   314540.7014    96283.9099     8178   69.39%
    116   109   109125.5073   205   314540.7014    96283.9099    16381   69.39%
    174   166   102714.3734   173   314540.7014    96283.9099    21367   69.39%
    221   211   109156.4199   136   314540.7014    96283.9099    27350   69.39%
    299   275   115560.2197   155   314540.7014    96283.9099    33955   69.39%
    362   297   109245.3130   140   314540.7014    96283.9099    37732   69.39%
    407   332   103407.3903   210   314540.7014    96283.9099    43314   69.39%
    472   407   115584.1967   132   314540.7014    96283.9099    50041   69.39%
*   561+  470                       308114.8776    96291.0539            68.75%
    562   505   129435.7703    83   308114.8776    96291.0539    69523   68.75%
Elapsed time = 4.87 sec. (7999.03 ticks, tree = 1.14 MB, solutions = 6)
    647   535    96400.9184   151   308114.8776    96294.5215    80003   68.75%
    728   611   153883.5493   121   308114.8776    96294.5215    92216   68.75%

Implied bound cuts applied:  5
Flow cuts applied:  107
Flow path cuts applied:  0
Zero-half cuts applied:  25
Gomory fractional cuts applied:  4

Root node processing (before b&c):
  Real time             =    2.99 sec. (4807.86 ticks)
Parallel b&c, 8 threads:
  Real time             =    3.21 sec. (5201.50 ticks)
  Sync time (average)   =    0.53 sec.
  Wait time (average)   =    0.00 sec.
                          ------------
Total (root+branch&cut) =    6.19 sec. (10009.36 ticks)
Gap: 68.75%
Upper bound: 308115
Lower bound: 96294.5
End of CPLEX run. Time: 6.19524 seconds
